 vasp.6.4.2 20Jul23 (build Jun 26 2024 13:15:30) complex
 executed on              LinuxNV date 2025.03.03  17:55:52
 OpenACC runtime initialized ...    4 GPUs detected

 INCAR:
   ALGO = Exact
   NBANDS = 96             (Set this parameters manually)
   LOPTICS = .TRUE.
   CSHIFT = 0.150
   NEDOS = 2000
   ISMEAR = 0
   SIGMA = 0.01
   EDIFF = 1.E-8
   LPEAD = .TRUE.       (Write the derivative of the cell-periodic part of the orbitals)
   ISPIN = 1
   ECUT = 520

 POTCAR:    PAW_PBE O 08Apr2002
 POTCAR:    PAW_PBE W_sv 04Sep2015
 POTCAR:    PAW_PBE Bi_d 06Sep2000
 POTCAR:    PAW_PBE O 08Apr2002
   VRHFIN =O: s2p4

   TITEL  = PAW_PBE O 08Apr2002
   POMASS =   16.000; ZVAL   =    6.000    mass and valenz
   ENMAX  =  400.000; ENMIN  =  300.000 eV

 POTCAR:    PAW_PBE W_sv 04Sep2015
   VRHFIN =W : 5p6s5d

   TITEL  = PAW_PBE W_sv 04Sep2015
   POMASS =  183.850; ZVAL   =   14.000    mass and valenz
   ENMAX  =  223.057; ENMIN  =  167.293 eV

 POTCAR:    PAW_PBE Bi_d 06Sep2000
   VRHFIN =Bi:

   TITEL  = PAW_PBE Bi_d 06Sep2000
   POMASS =  208.980; ZVAL   =   15.000    mass and valenz
   ENMAX  =  242.839; ENMIN  =  182.129 eV

  PAW_PBE O 08Apr2002                   :
  PAW_PBE W_sv 04Sep2015                :
  PAW_PBE Bi_d 06Sep2000                :

 POSCAR: Generated by VASPKIT code
  positions in direct lattice
  velocities in cartesian coordinates
 exchange correlation table for  LEXCH =        8
   RHO(1)=    0.500       N(1)  =     2000
   RHO(2)=  100.500       N(2)  =     4000

 ion  position               nearest neighbor table
   1  0.312  0.312  0.994-   7 1.80   7 2.17
   2  0.819  0.819  0.006-   7 1.83   7 2.02
   3  0.950  0.725  0.549-   7 1.90   8 2.45   8 2.66
   4  0.725  0.950  0.549-   7 1.90   9 2.45   9 2.66
   5  0.974  0.479  0.918-   8 2.18   9 2.27   9 2.38   8 2.49
   6  0.479  0.974  0.918-   9 2.18   8 2.27   8 2.38   9 2.49
   7  0.765  0.765  0.428-   1 1.80   2 1.83   3 1.90   4 1.90   2 2.02   1 2.17
   8  0.353  0.007  0.354-   5 2.18   6 2.27   6 2.38   3 2.45   5 2.49   3 2.66   9 3.75   9 3.75
                             9 3.76   9 3.76
   9  0.007  0.353  0.354-   6 2.18   5 2.27   5 2.38   4 2.45   6 2.49   4 2.66   8 3.75   8 3.75
                             8 3.76   8 3.76

  LATTYP: Found a base centered monoclinic cell.
 ALAT       =     5.4979998276
 B/A-ratio  =     3.0118616946
 C/A-ratio  =     0.6962573929
 COS(beta)  =    -0.6934704271

  Lattice vectors:

 A1 = (   2.7487708124,  -8.2796075390,  -0.0354900959)
 A2 = (   2.7487708124,   8.2796075390,  -0.0354900959)
 A3 = (  -2.6187928059,  -0.0000000000,   2.7920753089)

Analysis of symmetry for initial positions (statically):
 Subroutine PRICEL returns:
 Original cell was already a primitive cell.

 Routine SETGRP: Setting up the symmetry group for a
 base centered monoclinic supercell.

 Subroutine GETGRP returns: Found  2 space group operations
 (whereof  2 operations were pure point group operations)
 out of a pool of  4 trial point group operations.

The static configuration has the point symmetry C_1h.

Analysis of symmetry for dynamics (positions and initial velocities):
 Subroutine PRICEL returns:
 Original cell was already a primitive cell.

 Routine SETGRP: Setting up the symmetry group for a
 base centered monoclinic supercell.

 Subroutine GETGRP returns: Found  2 space group operations
 (whereof  2 operations were pure point group operations)
 out of a pool of  4 trial point group operations.

The dynamic configuration has the point symmetry C_1h.

 Subroutine INISYM returns: Found  2 space group operations
 (whereof  2 operations are pure point group operations),
 and found     1 'primitive' translations

                                     Primitive cell

  volume of cell :     125.5492

  direct lattice vectors                    reciprocal lattice vectors
     2.748770812 -8.279607539 -0.035490096     0.184129285 -0.060389336  0.172701805
     2.748770812  8.279607539 -0.035490096     0.184129285  0.060389336  0.172701805
    -2.618792806 -0.000000000  2.792075309     0.004680938  0.000000000  0.362546957

  length of vectors
     8.724041582  8.724041582  3.828023026     0.259569603  0.259569603  0.362577174

  position of ions in fractional coordinates (direct lattice)
     0.311601001  0.311601001  0.993614475
     0.818679278  0.818679278  0.006226457
     0.950229929  0.725012998  0.549057765
     0.725012998  0.950229929  0.549057765
     0.974437653  0.479071792  0.917801322
     0.479071792  0.974437653  0.917801322
     0.764774586  0.764774586  0.428491841
     0.353187034  0.007069086  0.353511413
     0.007069086  0.353187034  0.353511413

  ion indices of the primitive-cell ions
   primitive index   ion index
                 1           1
                 2           2
                 3           3
                 4           4
                 5           5
                 6           6
                 7           7
                 8           8
                 9           9

 KPOINTS: K-Spacing Value to Generate K-Mesh: 0.02

Automatic generation of k-mesh.
 Grid dimensions read from file:
 generate k-points for:   13   13   18

 Generating k-lattice:

  Cartesian coordinates                     Fractional coordinates (reciprocal lattice)
     0.014163791 -0.004645334  0.013284754     0.076923077  0.000000000  0.000000000
     0.014163791  0.004645334  0.013284754    -0.000000000  0.076923077  0.000000000
     0.000260052  0.000000000  0.020141498    -0.000000000 -0.000000000  0.055555556

  Length of vectors
     0.019966893  0.019966893  0.020143176

  Shift w.r.t. Gamma in fractional coordinates (k-lattice)
     0.000000000  0.000000000  0.000000000

 Subroutine IBZKPT returns following result:

 Found    826 irreducible k-points:

 Following reciprocal coordinates:
            Coordinates               Weight
  0.000000  0.000000  0.000000      1.000000
  0.076923  0.000000  0.000000      4.000000
  0.153846  0.000000  0.000000      4.000000
  0.230769  0.000000  0.000000      4.000000
  0.307692  0.000000  0.000000      4.000000
  0.384615  0.000000  0.000000      4.000000
  0.461538  0.000000  0.000000      4.000000
  0.076923  0.076923  0.000000      2.000000
  0.153846  0.076923  0.000000      4.000000
  0.230769  0.076923  0.000000      4.000000
  0.307692  0.076923  0.000000      4.000000
  0.384615  0.076923  0.000000      4.000000
  0.461538  0.076923  0.000000      4.000000
 -0.461538  0.076923  0.000000      4.000000
 -0.384615  0.076923  0.000000      4.000000
 -0.307692  0.076923  0.000000      4.000000
 -0.230769  0.076923  0.000000      4.000000
 -0.153846  0.076923  0.000000      4.000000
 -0.076923  0.076923  0.000000      2.000000
  0.153846  0.153846  0.000000      2.000000
  0.230769  0.153846  0.000000      4.000000
  0.307692  0.153846  0.000000      4.000000
  0.384615  0.153846  0.000000      4.000000
  0.461538  0.153846  0.000000      4.000000
 -0.461538  0.153846  0.000000      4.000000
 -0.384615  0.153846  0.000000      4.000000
 -0.307692  0.153846  0.000000      4.000000
 -0.230769  0.153846  0.000000      4.000000
 -0.153846  0.153846  0.000000      2.000000
  0.230769  0.230769  0.000000      2.000000
  0.307692  0.230769  0.000000      4.000000
  0.384615  0.230769  0.000000      4.000000
  0.461538  0.230769  0.000000      4.000000
 -0.461538  0.230769  0.000000      4.000000
 -0.384615  0.230769  0.000000      4.000000
 -0.307692  0.230769  0.000000      4.000000
 -0.230769  0.230769  0.000000      2.000000
  0.307692  0.307692  0.000000      2.000000
  0.384615  0.307692  0.000000      4.000000
  0.461538  0.307692  0.000000      4.000000
 -0.461538  0.307692  0.000000      4.000000
 -0.384615  0.307692  0.000000      4.000000
 -0.307692  0.307692  0.000000      2.000000
  0.384615  0.384615  0.000000      2.000000
  0.461538  0.384615  0.000000      4.000000
 -0.461538  0.384615  0.000000      4.000000
 -0.384615  0.384615  0.000000      2.000000
  0.461538  0.461538  0.000000      2.000000
 -0.461538  0.461538  0.000000      2.000000
  0.000000  0.000000  0.055556      2.000000
  0.076923  0.000000  0.055556      4.000000
  0.153846  0.000000  0.055556      4.000000
  0.230769  0.000000  0.055556      4.000000
  0.307692  0.000000  0.055556      4.000000
  0.384615  0.000000  0.055556      4.000000
  0.461538  0.000000  0.055556      4.000000
 -0.461538  0.000000  0.055556      4.000000
 -0.384615  0.000000  0.055556      4.000000
 -0.307692  0.000000  0.055556      4.000000
 -0.230769  0.000000  0.055556      4.000000
[...]
 -0.384615  0.230769  0.500000      4.000000
 -0.307692  0.230769  0.500000      4.000000
 -0.230769  0.230769  0.500000      2.000000
  0.307692  0.307692  0.500000      2.000000
  0.384615  0.307692  0.500000      4.000000
  0.461538  0.307692  0.500000      4.000000
 -0.461538  0.307692  0.500000      4.000000
 -0.384615  0.307692  0.500000      4.000000
 -0.307692  0.307692  0.500000      2.000000
  0.384615  0.384615  0.500000      2.000000
  0.461538  0.384615  0.500000      4.000000
 -0.461538  0.384615  0.500000      4.000000
 -0.384615  0.384615  0.500000      2.000000
  0.461538  0.461538  0.500000      2.000000
 -0.461538  0.461538  0.500000      2.000000

 Following cartesian coordinates:
            Coordinates               Weight
  0.000000  0.000000  0.000000      1.000000
  0.014164 -0.004645  0.013285      4.000000
  0.028328 -0.009291  0.026570      4.000000
  0.042491 -0.013936  0.039854      4.000000
  0.056655 -0.018581  0.053139      4.000000
  0.070819 -0.023227  0.066424      4.000000
  0.084983 -0.027872  0.079709      4.000000
  0.028328 -0.000000  0.026570      2.000000
  0.042491 -0.004645  0.039854      4.000000
  0.056655 -0.009291  0.053139      4.000000
  0.070819 -0.013936  0.066424      4.000000
  0.084983 -0.018581  0.079709      4.000000
  0.099147 -0.023227  0.092993      4.000000
 -0.070819  0.032517 -0.066424      4.000000
 -0.056655  0.027872 -0.053139      4.000000
 -0.042491  0.023227 -0.039854      4.000000
 -0.028328  0.018581 -0.026570      4.000000
 -0.014164  0.013936 -0.013285      4.000000
  0.000000  0.009291  0.000000      2.000000
  0.056655  0.000000  0.053139      2.000000
  0.070819 -0.004645  0.066424      4.000000
  0.084983 -0.009291  0.079709      4.000000
  0.099147 -0.013936  0.092993      4.000000
  0.113310 -0.018581  0.106278      4.000000
 -0.056655  0.037163 -0.053139      4.000000
 -0.042491  0.032517 -0.039854      4.000000
 -0.028328  0.027872 -0.026570      4.000000
 -0.014164  0.023227 -0.013285      4.000000
  0.000000  0.018581  0.000000      2.000000
  0.084983  0.000000  0.079709      2.000000
  0.099147 -0.004645  0.092993      4.000000
  0.113310 -0.009291  0.106278      4.000000
  0.127474 -0.013936  0.119563      4.000000
 -0.042491  0.041808 -0.039854      4.000000
 -0.028328  0.037163 -0.026570      4.000000
 -0.014164  0.032517 -0.013285      4.000000
  0.000000  0.027872  0.000000      2.000000
  0.113310 -0.000000  0.106278      2.000000
  0.127474 -0.004645  0.119563      4.000000
  0.141638 -0.009291  0.132848      4.000000
 -0.028328  0.046453 -0.026570      4.000000
[...]
   20.745553    0.151073    0.359169    0.157224    0.000000    0.000000   -0.007868
   21.374206    0.160658    0.144508    0.157448    0.000000    0.000000    0.000380
   22.002859    0.201336    0.230158    0.191164    0.000000    0.000000    0.008183
   22.631512    0.311873    0.330006    0.301854    0.000000    0.000000    0.015415
   23.260165    0.384394    0.440506    0.394600    0.000000    0.000000    0.019341
   23.888819    0.433623    0.537009    0.456412    0.000000    0.000000   -0.003889
   24.517472    0.524989    0.622106    0.546517    0.000000    0.000000    0.010769
   25.146125    0.562601    0.640323    0.593773    0.000000    0.000000    0.011670
   25.774778    0.629665    0.669857    0.639776    0.000000    0.000000    0.023880
   26.403431    0.575000    0.577948    0.558166    0.000000    0.000000    0.024512
   27.032084    0.482720    0.521969    0.485407    0.000000    0.000000    0.014662
   27.660737    0.458535    0.322848    0.460871    0.000000    0.000000   -0.013420
   28.289390    0.255343    0.212201    0.270943    0.000000    0.000000   -0.003580
   28.918043    0.192129    0.175293    0.198920    0.000000    0.000000   -0.015831
   29.546697    0.274284    0.249601    0.281295    0.000000    0.000000   -0.033960
   30.175350    0.328220    0.298180    0.328127    0.000000    0.000000   -0.029543
   30.804003    0.396655    0.362499    0.397826    0.000000    0.000000   -0.020334
   31.432656    0.457012    0.413418    0.452831    0.000000    0.000000   -0.014503
   32.061309    0.514867    0.458473    0.509955    0.000000    0.000000   -0.013364
   32.689962    0.570971    0.537180    0.565915    0.000000    0.000000   -0.012336
   33.318615    0.614410    0.574849    0.609757    0.000000    0.000000   -0.013241
   33.947268    0.615445    0.587499    0.618663    0.000000    0.000000   -0.019497
   34.575922    0.649552    0.616851    0.651644    0.000000    0.000000   -0.000807
   35.204575    0.682887    0.650885    0.686633    0.000000    0.000000    0.008146
   35.833228    0.717664    0.709928    0.727999    0.000000    0.000000    0.002128
   36.461881    0.766655    0.778162    0.777508    0.000000    0.000000   -0.019863
   37.090534    0.765345    0.799728    0.781621    0.000000    0.000000   -0.017850
[...]
  116.300827    0.955794    0.955640    0.955699    0.000000    0.000000    0.000101
  116.929480    0.956298    0.956147    0.956204    0.000000    0.000000    0.000100
  117.558133    0.956794    0.956645    0.956701    0.000000    0.000000    0.000099
  118.186786    0.957281    0.957134    0.957189    0.000000    0.000000    0.000097
  118.815439    0.957760    0.957614    0.957669    0.000000    0.000000    0.000096
  119.444093    0.958230    0.958087    0.958141    0.000000    0.000000    0.000095
  120.072746    0.958692    0.958551    0.958604    0.000000    0.000000    0.000094
  120.701399    0.959147    0.959008    0.959060    0.000000    0.000000    0.000093
  121.330052    0.959594    0.959456    0.959508    0.000000    0.000000    0.000092
  121.958705    0.960033    0.959898    0.959948    0.000000    0.000000    0.000091
  122.587358    0.960466    0.960332    0.960381    0.000000    0.000000    0.000090
  123.216011    0.960891    0.960759    0.960807    0.000000    0.000000    0.000089
  123.844664    0.961309    0.961178    0.961226    0.000000    0.000000    0.000088
  124.473318    0.961720    0.961591    0.961638    0.000000    0.000000    0.000087
  125.101971    0.962124    0.961997    0.962044    0.000000    0.000000    0.000086

  frequency dependent IMAGINARY DIELECTRIC FUNCTION (independent particle, no local field effects) current-current
     E(ev)      X         Y         Z        XY        YZ        ZX
    0.000000   27.472920   27.990886   27.321446   -0.000000   -0.000000   -7.570001
    0.628653    2.818620    2.878556    2.802651   -0.000000   -0.000000   -0.779649
    1.257306    1.530955    1.576257    1.521380   -0.000000   -0.000000   -0.429163
    1.885959    1.198462    1.255716    1.188387   -0.000000   -0.000000   -0.346295
    2.514612    1.233005    1.343631    1.208891   -0.000000   -0.000000   -0.379717
    3.143266    2.339596    2.921038    2.106600   -0.000000   -0.000000   -0.744343
    3.771919    5.491799    6.839537    5.874502   -0.000000   -0.000000   -2.002270
    4.400572    9.684025   12.208566   10.115691   -0.000000   -0.000000   -0.792990
    5.029225   11.342123    8.873471   10.066445   -0.000000   -0.000000   -0.319252
    5.657878    8.527978    6.832361    7.586073   -0.000000   -0.000000    0.655278
    6.286531    6.283339    5.326230    5.836949   -0.000000   -0.000000    0.769632
    6.915184    7.254449    5.002858    7.772919   -0.000000   -0.000000    0.626764
    7.543837    5.650106    4.621822    6.287149   -0.000000   -0.000000    0.201702
    8.172491    4.289862    3.916643    4.410958   -0.000000   -0.000000    0.004657
    8.801144    3.276674    3.478675    3.408206   -0.000000   -0.000000    0.265025
    9.429797    2.731749    2.854869    2.942180   -0.000000   -0.000000   -0.109603
   10.058450    1.901662    2.702545    2.128420   -0.000000   -0.000000   -0.197135
   10.687103    1.429199    2.318974    1.885366   -0.000000   -0.000000   -0.276748
   11.315756    1.413421    1.973693    1.535909   -0.000000   -0.000000   -0.266461
   11.944409    1.639752    1.994974    1.590254   -0.000000   -0.000000   -0.055259
   12.573062    2.000969    2.030463    1.939457   -0.000000   -0.000000    0.116025
   13.201715    2.011931    2.342261    1.886337   -0.000000   -0.000000    0.069115
   13.830369    1.895564    2.249803    1.868247   -0.000000   -0.000000    0.048267
   14.459022    1.811044    1.826233    1.641128   -0.000000   -0.000000    0.018431
   15.087675    2.044488    1.551238    1.835809   -0.000000   -0.000000   -0.086210
   15.716328    1.973355    1.497599    1.906232   -0.000000   -0.000000   -0.090110
   16.344981    1.725281    1.441195    1.772111   -0.000000   -0.000000    0.014722
   16.973634    1.410094    1.400689    1.395004   -0.000000   -0.000000    0.088943
   17.602287    1.128606    1.231848    1.141533   -0.000000   -0.000000    0.085739
   18.230940    1.036787    1.076586    1.064350   -0.000000   -0.000000    0.083600
   18.859594    1.041740    1.048061    0.996404   -0.000000   -0.000000    0.007791
   19.488247    1.054329    0.925659    0.988401   -0.000000   -0.000000    0.033189
   20.116900    0.952057    0.810338    0.968970   -0.000000   -0.000000    0.028398
   20.745553    0.871561    0.894527    0.885815   -0.000000   -0.000000   -0.001614
   21.374206    0.770264    0.817165    0.768413   -0.000000   -0.000000   -0.010608
   22.002859    0.637183    0.656467    0.637477   -0.000000   -0.000000   -0.003461
   22.631512    0.566675    0.557238    0.542645   -0.000000   -0.000000   -0.012129
   23.260165    0.546879    0.508759    0.523620   -0.000000   -0.000000    0.019775
   23.888819    0.536202    0.536826    0.511455   -0.000000   -0.000000    0.011134
   24.517472    0.527211    0.567182    0.519227   -0.000000   -0.000000    0.015117
   25.146125    0.551038    0.624474    0.565565   -0.000000   -0.000000    0.000018
   25.774778    0.615270    0.739086    0.651504   -0.000000   -0.000000    0.011004
   26.403431    0.692101    0.776123    0.694662   -0.000000   -0.000000    0.033054
   27.032084    0.697329    0.850642    0.687487   -0.000000   -0.000000    0.029495
   27.660737    0.728863    0.818910    0.718995   -0.000000   -0.000000    0.030838
   28.289390    0.727159    0.679030    0.735672   -0.000000   -0.000000    0.034817
   28.918043    0.477068    0.499128    0.468205   -0.000000   -0.000000    0.035071
   29.546697    0.350853    0.390056    0.362307   -0.000000   -0.000000    0.024768
   30.175350    0.273790    0.306769    0.286400   -0.000000   -0.000000    0.006239
   30.804003    0.222735    0.250416    0.227624   -0.000000   -0.000000   -0.002652
   31.432656    0.190952    0.217196    0.193023   -0.000000   -0.000000    0.000319
   32.061309    0.168069    0.169886    0.172447   -0.000000   -0.000000    0.001784
   32.689962    0.156958    0.148362    0.150658   -0.000000   -0.000000    0.001417
   33.318615    0.197289    0.179100    0.191326   -0.000000   -0.000000    0.006972
   33.947268    0.174679    0.166411    0.162289   -0.000000   -0.000000   -0.011334
   34.575922    0.153815    0.131383    0.149413   -0.000000   -0.000000   -0.016579
   35.204575    0.151770    0.114568    0.141831   -0.000000   -0.000000    0.000993
   35.833228    0.134834    0.092956    0.127147   -0.000000   -0.000000    0.010719
   36.461881    0.164752    0.122339    0.157770   -0.000000   -0.000000    0.015790
   37.090534    0.200477    0.174104    0.196016   -0.000000   -0.000000   -0.011342
[...]
  116.300827    0.000007    0.000008    0.000007   -0.000000   -0.000000   -0.000016
  116.929480    0.000007    0.000007    0.000007   -0.000000   -0.000000   -0.000016
  117.558133    0.000007    0.000007    0.000007   -0.000000   -0.000000   -0.000015
  118.186786    0.000007    0.000007    0.000007   -0.000000   -0.000000   -0.000015
  118.815439    0.000007    0.000007    0.000007   -0.000000   -0.000000   -0.000015
  119.444093    0.000006    0.000006    0.000006   -0.000000   -0.000000   -0.000015
  120.072746    0.000006    0.000006    0.000006   -0.000000   -0.000000   -0.000014
  120.701399    0.000006    0.000006    0.000006   -0.000000   -0.000000   -0.000014
  121.330052    0.000006    0.000006    0.000006   -0.000000   -0.000000   -0.000014
  121.958705    0.000006    0.000006    0.000006   -0.000000   -0.000000   -0.000014
  122.587358    0.000006    0.000006    0.000006   -0.000000   -0.000000   -0.000014
  123.216011    0.000005    0.000005    0.000005   -0.000000   -0.000000   -0.000013
  123.844664    0.000005    0.000005    0.000005   -0.000000   -0.000000   -0.000013
  124.473318    0.000005    0.000005    0.000005   -0.000000   -0.000000   -0.000013
  125.101971    0.000005    0.000005    0.000005   -0.000000   -0.000000   -0.000013

  frequency dependent      REAL DIELECTRIC FUNCTION (independent particle, no local field effects) current-current
     E(ev)        X           Y           Z          XY          YZ          ZX
    0.000000    6.739490    6.846080    6.707946   -0.000000   -0.000000   -0.230280
    0.628653    6.812722    6.927518    6.780349   -0.000000   -0.000000   -0.237984
    1.257306    7.052328    7.195831    7.017040   -0.000000   -0.000000   -0.264413
    1.885959    7.526637    7.735237    7.484025   -0.000000   -0.000000   -0.322297
    2.514612    8.419154    8.788987    8.363279   -0.000000   -0.000000   -0.448365
    3.143266   10.078393   10.869229   10.125181   -0.000000   -0.000000   -0.577212
    3.771919   11.523176   12.581720   11.946793   -0.000000   -0.000000    0.029315
    4.400572    9.662952    6.627015    8.587791   -0.000000   -0.000000    1.273205
    5.029225    4.085955    0.773742    3.246458   -0.000000   -0.000000    1.159595
    5.657878    0.608687    0.751793    1.145981    0.000000   -0.000000    0.959099
    6.286531    1.398339    0.444884    2.340156   -0.000000   -0.000000    0.330833
    6.915184    0.066395    0.704530    1.322165    0.000000   -0.000000   -0.086311
    7.543837   -1.168313    0.032459   -1.476951    0.000000    0.000000   -0.279369
    8.172491   -1.358023    0.026464   -1.470259    0.000000    0.000000    0.062385
    8.801144   -0.999046   -0.219388   -0.849152    0.000000    0.000000   -0.188013
    9.429797   -1.108496   -0.044585   -1.017746    0.000000    0.000000   -0.329859
   10.058450   -0.699668    0.191933   -0.720402    0.000000    0.000000   -0.242116
   10.687103   -0.150111   -0.086065   -0.209771    0.000000    0.000000   -0.126518
   11.315756    0.467117    0.324522    0.102397    0.000000    0.000000    0.171147
   11.944409    0.760531    0.356039    0.566183    0.000000    0.000000    0.272530
   12.573062    0.791907    0.744642    0.704071    0.000000    0.000000    0.099236
   13.201715    0.520702    0.507773    0.379902    0.000000    0.000000    0.081352
   13.830369    0.482255    0.077140    0.391924    0.000000    0.000000   -0.032400
   14.459022    0.570402   -0.070629    0.400459    0.000000    0.000000   -0.083974
   15.087675    0.411727    0.043322    0.574665    0.000000    0.000000    0.036132
   15.716328    0.119853    0.134089    0.221282    0.000000    0.000000    0.110566
   16.344981   -0.106555    0.176884   -0.064059    0.000000    0.000000    0.107813
   16.973634   -0.172770    0.110172   -0.202881    0.000000    0.000000    0.103875
   17.602287   -0.055324    0.060970   -0.025289    0.000000    0.000000    0.030968
   18.230940    0.114685    0.074501    0.060426    0.000000    0.000000    0.009446
   18.859594    0.227066    0.146129    0.192408    0.000000    0.000000   -0.054942
   19.488247    0.183257    0.141275    0.235288    0.000000    0.000000    0.003601
   20.116900    0.142081    0.260036    0.169086    0.000000    0.000000   -0.019399
   20.745553    0.138611    0.346423    0.144534    0.000000    0.000000   -0.007997
   21.374206    0.149985    0.133198    0.146789    0.000000    0.000000    0.000395
   22.002859    0.192783    0.221368    0.182597    0.000000    0.000000    0.008091
   22.631512    0.304501    0.322788    0.294800    0.000000    0.000000    0.015454
   23.260165    0.377478    0.434112    0.387983    0.000000    0.000000    0.018967
   23.888819    0.427034    0.530438    0.450128    0.000000    0.000000   -0.004147
   24.517472    0.518680    0.615339    0.540299    0.000000    0.000000    0.010474
   25.146125    0.556163    0.633033    0.587162    0.000000    0.000000    0.011567
   25.774778    0.622632    0.661407    0.632318    0.000000    0.000000    0.023656
   26.403431    0.567261    0.569271    0.550395    0.000000    0.000000    0.024046
   27.032084    0.475094    0.512652    0.477891    0.000000    0.000000    0.014252
   27.660737    0.450738    0.314074    0.453171    0.000000    0.000000   -0.013845
   28.289390    0.247706    0.205089    0.263218    0.000000    0.000000   -0.004039
   28.918043    0.187259    0.170206    0.194140    0.000000    0.000000   -0.016277
   29.546697    0.270808    0.245731    0.277699    0.000000    0.000000   -0.034290
   30.175350    0.325585    0.295227    0.325362    0.000000    0.000000   -0.029681
   30.804003    0.394573    0.360155    0.395695    0.000000    0.000000   -0.020380
   31.432656    0.455276    0.411438    0.451072    0.000000    0.000000   -0.014576
   32.061309    0.513382    0.456975    0.508424    0.000000    0.000000   -0.013446
   32.689962    0.569619    0.535913    0.564616    0.000000    0.000000   -0.012414
   33.318615    0.612717    0.573326    0.608114    0.000000    0.000000   -0.013368
   33.947268    0.613984    0.586116    0.617310    0.000000    0.000000   -0.019454
   34.575922    0.648300    0.615797    0.650425    0.000000    0.000000   -0.000718
   35.204575    0.681674    0.649995    0.685502    0.000000    0.000000    0.008084
   35.833228    0.716617    0.709238    0.727013    0.000000    0.000000    0.001986
   36.461881    0.765379    0.777242    0.776283    0.000000    0.000000   -0.020045
   37.090534    0.763796    0.798403    0.780105    0.000000    0.000000   -0.017807
[...]
  116.300827    0.955803    0.955649    0.955707    0.000000    0.000000    0.000096
  116.929480    0.956307    0.956156    0.956213    0.000000    0.000000    0.000095
  117.558133    0.956802    0.956654    0.956709    0.000000    0.000000    0.000094
  118.186786    0.957289    0.957143    0.957198    0.000000    0.000000    0.000093
  118.815439    0.957768    0.957623    0.957677    0.000000    0.000000    0.000092
  119.444093    0.958238    0.958096    0.958149    0.000000    0.000000    0.000091
  120.072746    0.958701    0.958560    0.958612    0.000000    0.000000    0.000090
  120.701399    0.959155    0.959016    0.959068    0.000000    0.000000    0.000089
  121.330052    0.959602    0.959465    0.959515    0.000000    0.000000    0.000088
  121.958705    0.960041    0.959906    0.959956    0.000000    0.000000    0.000087
  122.587358    0.960473    0.960340    0.960389    0.000000    0.000000    0.000086
  123.216011    0.960898    0.960767    0.960815    0.000000    0.000000    0.000085
  123.844664    0.961316    0.961187    0.961234    0.000000    0.000000    0.000084
  124.473318    0.961727    0.961599    0.961646    0.000000    0.000000    0.000083
  125.101971    0.962132    0.962006    0.962051    0.000000    0.000000    0.000082

 The outermost node in the dielectric function lies at epsilon=  17.7