 vasp.6.4.2 20Jul23 (build Jun 26 2024 13:15:30) complex
 executed on              LinuxNV date 2025.02.27  19:48:03
 OpenACC runtime initialized ...    4 GPUs detected

 INCAR:
   ISTART = 1            (Read existing wavefunction, if there)
   ISPIN = 1            (Non-Spin polarised DFT)
   LREAL = .FALSE.       (Projection operators: automatic)
   LWAVE = .TRUE.        (Write WAVECAR or not)
   LCHARG = .TRUE.        (Write CHGCAR or not)
   ADDGRID = .TRUE.        (Increase grid, helps GGA convergence)
   LASPH = .TRUE.        (Give more accurate total energies and band structure calculations)
   PREC = Accurate      (Accurate strictly avoids any aliasing or wrap around errors)
   ISMEAR = 0            (gaussian smearing method)
   SIGMA = 0.05         (please check the width of the smearing)
   LORBIT = 11           (PAW radii for projected DOS)
   NEDOS = 2001         (DOSCAR points)
   NELM = 60           (Max electronic SCF steps)
   EDIFF = 1E-08        (SCF energy convergence, in eV)

 POTCAR:    PAW_PBE O 08Apr2002
 POTCAR:    PAW_PBE W_sv 04Sep2015
 POTCAR:    PAW_PBE Bi_d 06Sep2000
 POTCAR:    PAW_PBE O 08Apr2002
   VRHFIN =O: s2p4

   TITEL  = PAW_PBE O 08Apr2002
   POMASS =   16.000; ZVAL   =    6.000    mass and valenz
   ENMAX  =  400.000; ENMIN  =  300.000 eV

 POTCAR:    PAW_PBE W_sv 04Sep2015
   VRHFIN =W : 5p6s5d

   TITEL  = PAW_PBE W_sv 04Sep2015
   POMASS =  183.850; ZVAL   =   14.000    mass and valenz
   ENMAX  =  223.057; ENMIN  =  167.293 eV

 POTCAR:    PAW_PBE Bi_d 06Sep2000
   VRHFIN =Bi:

   TITEL  = PAW_PBE Bi_d 06Sep2000
   POMASS =  208.980; ZVAL   =   15.000    mass and valenz
   ENMAX  =  242.839; ENMIN  =  182.129 eV

  PAW_PBE O 08Apr2002                   :
  PAW_PBE W_sv 04Sep2015                :
  PAW_PBE Bi_d 06Sep2000                :

 POSCAR: Generated by VASPKIT code
  positions in direct lattice
  velocities in cartesian coordinates
 exchange correlation table for  LEXCH =        8
   RHO(1)=    0.500       N(1)  =     2000
   RHO(2)=  100.500       N(2)  =     4000

 ion  position               nearest neighbor table
   1  0.312  0.312  0.994-   7 1.80   7 2.17
   2  0.819  0.819  0.006-   7 1.83   7 2.02
   3  0.950  0.725  0.549-   7 1.90   8 2.45   8 2.66
   4  0.725  0.950  0.549-   7 1.90   9 2.45   9 2.66
   5  0.974  0.479  0.918-   8 2.18   9 2.27   9 2.38   8 2.49
   6  0.479  0.974  0.918-   9 2.18   8 2.27   8 2.38   9 2.49
   7  0.765  0.765  0.428-   1 1.80   2 1.83   3 1.90   4 1.90   2 2.02   1 2.17
   8  0.353  0.007  0.354-   5 2.18   6 2.27   6 2.38   3 2.45   5 2.49   3 2.66   9 3.75   9 3.75
                             9 3.76   9 3.76
   9  0.007  0.353  0.354-   6 2.18   5 2.27   5 2.38   4 2.45   6 2.49   4 2.66   8 3.75   8 3.75
                             8 3.76   8 3.76

  LATTYP: Found a base centered monoclinic cell.
 ALAT       =     5.4979998276
 B/A-ratio  =     3.0118616946
 C/A-ratio  =     0.6962573929
 COS(beta)  =    -0.6934704271

  Lattice vectors:

 A1 = (   2.7487708124,  -8.2796075390,  -0.0354900959)
 A2 = (   2.7487708124,   8.2796075390,  -0.0354900959)
 A3 = (  -2.6187928059,  -0.0000000000,   2.7920753089)

Analysis of symmetry for initial positions (statically):
 Subroutine PRICEL returns:
 Original cell was already a primitive cell.

 Routine SETGRP: Setting up the symmetry group for a
 base centered monoclinic supercell.

 Subroutine GETGRP returns: Found  2 space group operations
 (whereof  2 operations were pure point group operations)
 out of a pool of  4 trial point group operations.

The static configuration has the point symmetry C_1h.

Analysis of symmetry for dynamics (positions and initial velocities):
 Subroutine PRICEL returns:
 Original cell was already a primitive cell.

 Routine SETGRP: Setting up the symmetry group for a
 base centered monoclinic supercell.

 Subroutine GETGRP returns: Found  2 space group operations
 (whereof  2 operations were pure point group operations)
 out of a pool of  4 trial point group operations.

The dynamic configuration has the point symmetry C_1h.

 Subroutine INISYM returns: Found  2 space group operations
 (whereof  2 operations are pure point group operations),
 and found     1 'primitive' translations

                                     Primitive cell

  volume of cell :     125.5492

  direct lattice vectors                    reciprocal lattice vectors
     2.748770812 -8.279607539 -0.035490096     0.184129285 -0.060389336  0.172701805
     2.748770812  8.279607539 -0.035490096     0.184129285  0.060389336  0.172701805
    -2.618792806 -0.000000000  2.792075309     0.004680938  0.000000000  0.362546957

  length of vectors
     8.724041582  8.724041582  3.828023026     0.259569603  0.259569603  0.362577174

  position of ions in fractional coordinates (direct lattice)
     0.311601001  0.311601001  0.993614475
     0.818679278  0.818679278  0.006226457
     0.950229929  0.725012998  0.549057765
     0.725012998  0.950229929  0.549057765
     0.974437653  0.479071792  0.917801322
     0.479071792  0.974437653  0.917801322
     0.764774586  0.764774586  0.428491841
     0.353187034  0.007069086  0.353511413
     0.007069086  0.353187034  0.353511413

  ion indices of the primitive-cell ions
   primitive index   ion index
                 1           1
                 2           2
                 3           3
                 4           4
                 5           5
                 6           6
                 7           7
                 8           8
                 9           9

 KPOINTS: K-Spacing Value to Generate K-Mesh: 0.02

Automatic generation of k-mesh.
 Grid dimensions read from file:
 generate k-points for:   13   13   18

 Generating k-lattice:

  Cartesian coordinates                     Fractional coordinates (reciprocal lattice)
     0.014163791 -0.004645334  0.013284754     0.076923077  0.000000000  0.000000000
     0.014163791  0.004645334  0.013284754    -0.000000000  0.076923077  0.000000000
     0.000260052  0.000000000  0.020141498    -0.000000000 -0.000000000  0.055555556

  Length of vectors
     0.019966893  0.019966893  0.020143176

  Shift w.r.t. Gamma in fractional coordinates (k-lattice)
     0.000000000  0.000000000  0.000000000

 Subroutine IBZKPT returns following result:

 Found    826 irreducible k-points:

 Following reciprocal coordinates:
            Coordinates               Weight
  0.000000  0.000000  0.000000      1.000000
  0.076923  0.000000  0.000000      4.000000
  0.153846  0.000000  0.000000      4.000000
  0.230769  0.000000  0.000000      4.000000
  0.307692  0.000000  0.000000      4.000000
  0.384615  0.000000  0.000000      4.000000
  0.461538  0.000000  0.000000      4.000000
  0.076923  0.076923  0.000000      2.000000
  0.153846  0.076923  0.000000      4.000000
  0.230769  0.076923  0.000000      4.000000
  0.307692  0.076923  0.000000      4.000000
  0.384615  0.076923  0.000000      4.000000
  0.461538  0.076923  0.000000      4.000000
 -0.461538  0.076923  0.000000      4.000000
 -0.384615  0.076923  0.000000      4.000000
 -0.307692  0.076923  0.000000      4.000000
 -0.230769  0.076923  0.000000      4.000000
 -0.153846  0.076923  0.000000      4.000000
 -0.076923  0.076923  0.000000      2.000000
  0.153846  0.153846  0.000000      2.000000
  0.230769  0.153846  0.000000      4.000000
  0.307692  0.153846  0.000000      4.000000
  0.384615  0.153846  0.000000      4.000000
  0.461538  0.153846  0.000000      4.000000
 -0.461538  0.153846  0.000000      4.000000
 -0.384615  0.153846  0.000000      4.000000
 -0.307692  0.153846  0.000000      4.000000
 -0.230769  0.153846  0.000000      4.000000
 -0.153846  0.153846  0.000000      2.000000
  0.230769  0.230769  0.000000      2.000000
  0.307692  0.230769  0.000000      4.000000
  0.384615  0.230769  0.000000      4.000000
  0.461538  0.230769  0.000000      4.000000
 -0.461538  0.230769  0.000000      4.000000
 -0.384615  0.230769  0.000000      4.000000
 -0.307692  0.230769  0.000000      4.000000
 -0.230769  0.230769  0.000000      2.000000
  0.307692  0.307692  0.000000      2.000000
  0.384615  0.307692  0.000000      4.000000
  0.461538  0.307692  0.000000      4.000000
 -0.461538  0.307692  0.000000      4.000000
 -0.384615  0.307692  0.000000      4.000000
 -0.307692  0.307692  0.000000      2.000000
  0.384615  0.384615  0.000000      2.000000
  0.461538  0.384615  0.000000      4.000000
 -0.461538  0.384615  0.000000      4.000000
 -0.384615  0.384615  0.000000      2.000000
  0.461538  0.461538  0.000000      2.000000
 -0.461538  0.461538  0.000000      2.000000
  0.000000  0.000000  0.055556      2.000000
  0.076923  0.000000  0.055556      4.000000
  0.153846  0.000000  0.055556      4.000000
  0.230769  0.000000  0.055556      4.000000
  0.307692  0.000000  0.055556      4.000000
  0.384615  0.000000  0.055556      4.000000
  0.461538  0.000000  0.055556      4.000000
 -0.461538  0.000000  0.055556      4.000000
 -0.384615  0.000000  0.055556      4.000000
 -0.307692  0.000000  0.055556      4.000000
 -0.230769  0.000000  0.055556      4.000000
[...]
 -0.384615  0.230769  0.500000      4.000000
 -0.307692  0.230769  0.500000      4.000000
 -0.230769  0.230769  0.500000      2.000000
  0.307692  0.307692  0.500000      2.000000
  0.384615  0.307692  0.500000      4.000000
  0.461538  0.307692  0.500000      4.000000
 -0.461538  0.307692  0.500000      4.000000
 -0.384615  0.307692  0.500000      4.000000
 -0.307692  0.307692  0.500000      2.000000
  0.384615  0.384615  0.500000      2.000000
  0.461538  0.384615  0.500000      4.000000
 -0.461538  0.384615  0.500000      4.000000
 -0.384615  0.384615  0.500000      2.000000
  0.461538  0.461538  0.500000      2.000000
 -0.461538  0.461538  0.500000      2.000000

 Following cartesian coordinates:
            Coordinates               Weight
  0.000000  0.000000  0.000000      1.000000
  0.014164 -0.004645  0.013285      4.000000
  0.028328 -0.009291  0.026570      4.000000
  0.042491 -0.013936  0.039854      4.000000
  0.056655 -0.018581  0.053139      4.000000
  0.070819 -0.023227  0.066424      4.000000
  0.084983 -0.027872  0.079709      4.000000
  0.028328 -0.000000  0.026570      2.000000
  0.042491 -0.004645  0.039854      4.000000
  0.056655 -0.009291  0.053139      4.000000
  0.070819 -0.013936  0.066424      4.000000
  0.084983 -0.018581  0.079709      4.000000
  0.099147 -0.023227  0.092993      4.000000
 -0.070819  0.032517 -0.066424      4.000000
 -0.056655  0.027872 -0.053139      4.000000
 -0.042491  0.023227 -0.039854      4.000000
 -0.028328  0.018581 -0.026570      4.000000
 -0.014164  0.013936 -0.013285      4.000000
  0.000000  0.009291  0.000000      2.000000
  0.056655  0.000000  0.053139      2.000000
  0.070819 -0.004645  0.066424      4.000000
  0.084983 -0.009291  0.079709      4.000000
  0.099147 -0.013936  0.092993      4.000000
  0.113310 -0.018581  0.106278      4.000000
 -0.056655  0.037163 -0.053139      4.000000
 -0.042491  0.032517 -0.039854      4.000000
 -0.028328  0.027872 -0.026570      4.000000
 -0.014164  0.023227 -0.013285      4.000000
  0.000000  0.018581  0.000000      2.000000
[...]
 k-point  36 :  -0.3077 0.2308 0.0000  plane waves:    2277
 k-point  37 :  -0.2308 0.2308 0.0000  plane waves:    2269
 k-point  38 :   0.3077 0.3077 0.0000  plane waves:    2282
 k-point  39 :   0.3846 0.3077 0.0000  plane waves:    2281
 k-point  40 :   0.4615 0.3077 0.0000  plane waves:    2276
 k-point  41 :  -0.4615 0.3077 0.0000  plane waves:    2283
 k-point  42 :  -0.3846 0.3077 0.0000  plane waves:    2284
 k-point  43 :  -0.3077 0.3077 0.0000  plane waves:    2275
 k-point  44 :   0.3846 0.3846 0.0000  plane waves:    2274
 k-point  45 :   0.4615 0.3846 0.0000  plane waves:    2292
 k-point  46 :  -0.4615 0.3846 0.0000  plane waves:    2288
 k-point  47 :  -0.3846 0.3846 0.0000  plane waves:    2287
 k-point  48 :   0.4615 0.4615 0.0000  plane waves:    2294
 k-point  49 :  -0.4615 0.4615 0.0000  plane waves:    2293
 k-point  50 :   0.0000 0.0000 0.0556  plane waves:    2280
 k-point  51 :   0.0769 0.0000 0.0556  plane waves:    2278
 k-point  52 :   0.1538 0.0000 0.0556  plane waves:    2284
 k-point  53 :   0.2308 0.0000 0.0556  plane waves:    2289
 k-point  54 :   0.3077 0.0000 0.0556  plane waves:    2287
 k-point  55 :   0.3846 0.0000 0.0556  plane waves:    2287
 k-point  56 :   0.4615 0.0000 0.0556  plane waves:    2282
 k-point  57 :  -0.4615 0.0000 0.0556  plane waves:    2286
 k-point  58 :  -0.3846 0.0000 0.0556  plane waves:    2285
 k-point  59 :  -0.3077 0.0000 0.0556  plane waves:    2290
 k-point  60 :  -0.2308 0.0000 0.0556  plane waves:    2283
[...]
 k-point 812 :  -0.3846 0.2308 0.5000  plane waves:    2275
 k-point 813 :  -0.3077 0.2308 0.5000  plane waves:    2273
 k-point 814 :  -0.2308 0.2308 0.5000  plane waves:    2266
 k-point 815 :   0.3077 0.3077 0.5000  plane waves:    2290
 k-point 816 :   0.3846 0.3077 0.5000  plane waves:    2286
 k-point 817 :   0.4615 0.3077 0.5000  plane waves:    2293
 k-point 818 :  -0.4615 0.3077 0.5000  plane waves:    2278
 k-point 819 :  -0.3846 0.3077 0.5000  plane waves:    2268
 k-point 820 :  -0.3077 0.3077 0.5000  plane waves:    2262
 k-point 821 :   0.3846 0.3846 0.5000  plane waves:    2288
 k-point 822 :   0.4615 0.3846 0.5000  plane waves:    2276
 k-point 823 :  -0.4615 0.3846 0.5000  plane waves:    2272
 k-point 824 :  -0.3846 0.3846 0.5000  plane waves:    2258
 k-point 825 :   0.4615 0.4615 0.5000  plane waves:    2266
 k-point 826 :  -0.4615 0.4615 0.5000  plane waves:    2262

 maximum and minimum number of plane-waves per node :      2303     2256

 maximum number of plane-waves:      2303
 maximum index in each direction:
   IXMAX=   14   IYMAX=   14   IZMAX=    6
   IXMIN=  -14   IYMIN=  -14   IZMIN=   -6

 serial   3D FFT for wavefunctions
 parallel 3D FFT for charge:
    minimum data exchange during FFTs selected (reduces bandwidth)

 Broyden mixing: mesh for mixing (old mesh)
   NGX = 29   NGY = 29   NGZ = 13
  (NGX  =120   NGY  =120   NGZ  = 56)
  gives a total of  10933 points

 initial charge density was supplied:
 charge density of overlapping atoms calculated
 number of electron      80.0000000 magnetization
 keeping initial charge density in first step

 Maximum index for augmentation-charges         88908 (set IRDMAX)

 First call to EWALD:  gamma=   0.354
 Maximum number of real-space cells 3x 3x 5
 Maximum number of reciprocal cells 4x 4x 2

--------------------------------------- Ionic step        1  -------------------------------------------

--------------------------------------- Iteration      1(   1)  ---------------------------------------

 eigenvalue-minimisations  : 82456
 total energy-change (2. order) : 0.9761608E+03  (-0.3680660E+04)
 number of electron      80.0000000 magnetization
 augmentation part       80.0000000 magnetization

 Free energy of the ion-electron system (eV)
  alpha Z        PSCENC =       343.16578823
  Ewald energy   TEWEN  =     -6351.82575815
  -Hartree energ DENC   =     -2034.98727228
  -exchange      EXHF   =         0.00000000
  -V(xc)+E(xc)   XCENC  =       321.30401453
  PAW double counting   =      6893.46380018    -6822.57699944
  entropy T*S    EENTRO =        -0.00159213
  eigenvalues    EBANDS =       250.07234659
  atomic energy  EATOM  =      8377.54643440
  Solvation  Ediel_sol  =         0.00000000
  free energy    TOTEN  =       976.16076194 eV

  energy without entropy =      976.16235407  energy(sigma->0) =      976.16155800

[...]

 eigenvalue-minimisations  : 86864
 total energy-change (2. order) :-0.9189767E+03  (-0.8841166E+03)
 number of electron      80.0000000 magnetization
 augmentation part       80.0000000 magnetization

[...]

 eigenvalue-minimisations  :103608
 total energy-change (2. order) :-0.2724589E+00  (-0.2722080E+00)
 number of electron      80.0000001 magnetization
 augmentation part       20.4848507 magnetization

 Broyden mixing:
  rms(total) = 0.49780E+01    rms(broyden)= 0.49777E+01
  rms(prec ) = 0.56214E+01
  weight for this iteration     100.00

[...]

 eigenvalue-minimisations  :106568
 total energy-change (2. order) : 0.1418075E+02  (-0.7201367E+01)
 number of electron      80.0000001 magnetization
 augmentation part       19.7376539 magnetization

[...]

 eigenvalues of (default mixing * dielectric matrix)
  average eigenvalue GAMMA=   1.0835
  1.0835

[...]

 eigenvalue-minimisations  : 98984
 total energy-change (2. order) : 0.5029177E-01  (-0.1874816E-01)
 number of electron      80.0000001 magnetization
 augmentation part       19.7466538 magnetization

[...]

 eigenvalue-minimisations  :100352
 total energy-change (2. order) : 0.1213643E-06  (-0.2250405E-06)
 number of electron      80.0000001 magnetization
 augmentation part       19.7235756 magnetization

 Broyden mixing:
  rms(total) = 0.14672E-03    rms(broyden)= 0.14008E-03
  rms(prec ) = 0.18632E-03
  weight for this iteration     100.00

[...]

 eigenvalue-minimisations  :117568
 total energy-change (2. order) :-0.3435662E-07  (-0.4188423E-07)
 number of electron      80.0000001 magnetization
 augmentation part       19.7236074 magnetization

 Broyden mixing:
  rms(total) = 0.91068E-04    rms(broyden)= 0.80428E-04
  rms(prec ) = 0.10299E-03
  weight for this iteration     100.00
  WARNING: grid for Broyden might be to small

[...]

 Broyden mixing:
  rms(total) = 0.54856E-04    rms(broyden)= 0.34634E-04
  rms(prec ) = 0.45222E-04
  weight for this iteration     100.00
  WARNING: grid for Broyden might be to small

 eigenvalues of (default mixing * dielectric matrix)
  average eigenvalue GAMMA=   1.4056
  3.0101  2.4143  2.2906  1.8196  1.3557  1.0809  1.0809  0.9154  0.9154  0.8023
  0.8782  0.8545  0.8545

[...]

--------------------------------------- Iteration      1(  19)  ---------------------------------------

 eigenvalue-minimisations  : 55408
 total energy-change (2. order) :-0.4498361E-08  (-0.1182822E-08)
 number of electron      80.0000001 magnetization
 augmentation part       19.7236100 magnetization

 Free energy of the ion-electron system (eV)
  alpha Z        PSCENC =       343.16578823
  Ewald energy   TEWEN  =     -6351.82575815
  -Hartree energ DENC   =     -2078.07327695
  -exchange      EXHF   =         0.00000000
  -V(xc)+E(xc)   XCENC  =       325.90261713
  PAW double counting   =      9682.38940743    -9613.32991652
  entropy T*S    EENTRO =        -0.00000000
  eigenvalues    EBANDS =      -751.56589918
  atomic energy  EATOM  =      8377.54643440
  Solvation  Ediel_sol  =         0.00000000
  free energy    TOTEN  =       -65.79060361 eV

  energy without entropy =      -65.79060361  energy(sigma->0) =      -65.79060361

 average (electrostatic) potential at core
  the test charge radii are     0.7215  1.1823  1.0856
  (the norm of the test charge is              1.0000)
       1 -69.6229       2 -69.6877       3 -68.7572       4 -68.7572       5 -69.0079
       6 -69.0079       7 -67.6192       8-104.8636       9-104.8636

 E-fermi :   5.2640     XC(G=0): -10.8188     alpha+bet :-12.1028

 Fermi energy:         5.2639878634

 k-point     1 :       0.0000    0.0000    0.0000
  band No.  band energies     occupation
      1     -69.5908      2.00000
      2     -33.9218      2.00000
      3     -33.8708      2.00000
      4     -33.7127      2.00000
      5     -16.9394      2.00000
      6     -16.7582      2.00000
      7     -16.7304      2.00000
      8     -16.7241      2.00000
      9     -16.7167      2.00000
     10     -16.7165      2.00000
     11     -16.6845      2.00000
     12     -16.6777      2.00000
     13     -16.6334      2.00000
     14     -16.6274      2.00000
     15     -13.5455      2.00000
     16     -13.2460      2.00000
     17     -12.6484      2.00000
     18     -11.6939      2.00000
     19     -11.2331      2.00000
     20     -10.7564      2.00000
     21      -4.4015      2.00000
     22      -2.1692      2.00000
     23       0.6579      2.00000
     24       0.7194      2.00000
     25       1.2916      2.00000
     26       1.5357      2.00000
     27       1.7506      2.00000
     28       1.8349      2.00000
     29       2.0974      2.00000
     30       2.3512      2.00000
     31       2.5758      2.00000
     32       3.0466      2.00000
     33       3.1144      2.00000
     34       3.1205      2.00000
     35       3.4550      2.00000
     36       3.7477      2.00000
     37       3.7559      2.00000
     38       3.9299      2.00000
     39       4.1068      2.00000
     40       4.6719      2.00000
     41       7.0501      0.00000
     42       7.8436      0.00000
     43       8.0007      0.00000
     44       8.4984      0.00000
     45       8.9483      0.00000
     46      10.0812      0.00000
     47      10.6501      0.00000
     48      10.7922      0.00000

[...]

 k-point   826 :      -0.4615    0.4615    0.5000
  band No.  band energies     occupation
      1     -69.5899      2.00000
      2     -33.9816      2.00000
      3     -33.9267      2.00000
      4     -33.7069      2.00000
      5     -16.9549      2.00000
      6     -16.9279      2.00000
      7     -16.7356      2.00000
      8     -16.7096      2.00000
      9     -16.6703      2.00000
     10     -16.6692      2.00000
     11     -16.6601      2.00000
     12     -16.6504      2.00000
     13     -16.6434      2.00000
     14     -16.6432      2.00000
     15     -11.9363      2.00000
     16     -11.8125      2.00000
     17     -11.7266      2.00000
     18     -11.7010      2.00000
     19     -11.4703      2.00000
     20     -10.8606      2.00000
     21      -4.7524      2.00000
     22      -4.5901      2.00000
     23      -1.8956      2.00000
     24      -1.4801      2.00000
     25      -0.5835      2.00000
     26      -0.4181      2.00000
     27       0.1884      2.00000
     28       0.3551      2.00000
     29       1.3434      2.00000
     30       1.4835      2.00000
     31       1.9415      2.00000
     32       2.4040      2.00000
     33       3.0650      2.00000
     34       3.7523      2.00000
     35       4.2408      2.00000
     36       4.4183      2.00000
     37       4.4399      2.00000
     38       4.4567      2.00000
     39       4.5482      2.00000
     40       4.8206      2.00000
     41       9.0588      0.00000
     42       9.3157      0.00000
     43       9.5312      0.00000
     44       9.8288      0.00000
     45       9.9280      0.00000
     46      11.4437      0.00000
     47      11.4980      0.00000
     48      11.8172      0.00000

 soft charge-density along one line, spin component            1
         0         1         2         3         4         5         6         7         8         9
 total charge-density along one line

------------------------ aborting loop because EDIFF is reached ----------------------------------------

 total charge

# of ion       s       p       d       tot
    1        1.600   3.505   0.000   5.105
    2        1.596   3.539   0.000   5.135
    3        1.603   3.445   0.000   5.048
    4        1.603   3.445   0.000   5.048
    5        1.602   3.435   0.000   5.037
    6        1.602   3.435   0.000   5.037
    7        2.408   6.543   3.097  12.047
    8        1.631   0.859  10.017  12.508
    9        1.631   0.859  10.017  12.508
tot         15.276  29.065  23.131  67.473

  FORCE on cell =-STRESS in cart. coord.  units (eV):
  Direction    XX          YY          ZZ          XY          YZ          ZX
  Alpha Z   343.16579   343.16579   343.16579
  Ewald   -2075.75447 -2246.56034 -2029.52012     0.00000    -0.00000  -132.34224
  Hartree   717.96160   612.49990   747.61280    -0.00000     0.00000   -86.09758
  E(xc)    -392.86173  -393.06166  -392.75598     0.00000    -0.00000    -0.11840
  Local    -262.54997     3.74762  -340.71663    -0.00000    -0.00000   215.97275
  n-local    58.62972    60.39509    59.32897     0.00282    -0.01477    -0.21105
  augment   370.24042   369.75387   370.94813     0.00000    -0.00000    -0.26404
  Kinetic  1240.22597  1248.80343  1240.94376     0.05763     0.07699     2.68192
  Fock        0.00000     0.00000     0.00000     0.00000     0.00000     0.00000
  Total      -0.94267    -1.25631    -0.99328     0.00000     0.00000    -0.37862
  in kB     -12.02970   -16.03216   -12.67560     0.00000     0.00000    -4.83168

 VOLUME and BASIS-vectors are now :
  energy-cutoff  :      400.00
  volume of cell :      125.55
      direct lattice vectors                 reciprocal lattice vectors
     2.748770812 -8.279607539 -0.035490096     0.184129285 -0.060389336  0.172701805
     2.748770812  8.279607539 -0.035490096     0.184129285  0.060389336  0.172701805
    -2.618792806 -0.000000000  2.792075309     0.004680938  0.000000000  0.362546957

  length of vectors
     8.724041582  8.724041582  3.828023026     0.259569603  0.259569603  0.362577174

 FORCES acting on ions
    electron-ion (+dipol)            ewald-force                    non-local-force                 convergence-correction
   0.682E+02 0.226E-12 0.518E+02   -.801E+02 0.000E+00 -.610E+02   0.119E+02 0.000E+00 0.928E+01   -.424E-04 0.269E-12 -.240E-04
   -.489E+02 0.183E-11 0.222E+02   0.571E+02 0.000E+00 -.252E+02   -.827E+01 0.000E+00 0.295E+01   0.333E-04 0.212E-12 0.117E-04
   0.249E+02 0.144E+03 0.265E+02   -.261E+02 -.161E+03 -.275E+02   0.120E+01 0.177E+02 0.979E+00   0.122E-04 0.252E-04 0.335E-04
   0.249E+02 -.144E+03 0.265E+02   -.261E+02 0.161E+03 -.275E+02   0.120E+01 -.177E+02 0.979E+00   0.122E-04 -.252E-04 0.335E-04
   0.107E+02 -.806E+01 0.197E+02   -.135E+02 0.774E+01 -.251E+02   0.285E+01 0.328E+00 0.537E+01   -.267E-05 0.585E-05 -.452E-05
   0.107E+02 0.806E+01 0.197E+02   -.135E+02 -.774E+01 -.251E+02   0.285E+01 -.328E+00 0.537E+01   -.267E-05 -.585E-05 -.452E-05
   0.193E+02 -.685E-11 0.609E+01   -.196E+02 -.171E-12 -.657E+01   0.268E+00 0.000E+00 0.474E+00   0.563E-04 0.351E-12 0.508E-04
   -.579E+02 -.217E+03 -.928E+02   0.609E+02 0.231E+03 0.990E+02   -.305E+01 -.133E+02 -.614E+01   -.347E-05 0.302E-03 0.869E-05
   -.579E+02 0.217E+03 -.928E+02   0.609E+02 -.231E+03 0.990E+02   -.305E+01 0.133E+02 -.614E+01   -.347E-05 -.302E-03 0.869E-05
   -.586E+01 -.135E-10 -.131E+02   0.142E-13 0.568E-13 0.000E+00   0.586E+01 0.178E-14 0.131E+02   0.594E-04 0.592E-13 0.114E-03

 POSITION                                       TOTAL-FORCE (eV/Angst)
     -0.88903     -0.00000      2.75213        -0.011182     -0.000000      0.004316
      4.48442      0.00000     -0.04073        -0.002051     -0.000000     -0.010699
      3.16699     -1.86471      1.47356        -0.010955     -0.013894      0.003536
      3.16699      1.86471      1.47356        -0.010955      0.013894      0.003536
      1.59183     -4.10143      2.51099         0.005849      0.005815      0.003934
      1.59183      4.10143      2.51099         0.005849     -0.005815      0.003934
      3.08225     -0.00000      1.14210        -0.019077     -0.000000      0.002089
      0.06449     -2.86572      0.97424         0.021262      0.005682     -0.005323
      0.06449      2.86572      0.97424         0.021262     -0.005682     -0.005323
    total drift:                                0.000154     -0.000000      0.000146

  FREE ENERGIE OF THE ION-ELECTRON SYSTEM (eV)
  free  energy   TOTEN  =       -65.79060361 eV

  energy  without entropy=      -65.79060361  energy(sigma->0) =      -65.79060361

 writing wavefunctions

 total charge

# of ion       s       p       d       tot
    1        1.600   3.505   0.000   5.105
    2        1.596   3.539   0.000   5.135
    3        1.603   3.445   0.000   5.048
    4        1.603   3.445   0.000   5.048
    5        1.602   3.435   0.000   5.037
    6        1.602   3.435   0.000   5.037
    7        2.408   6.543   3.097  12.047
    8        1.631   0.859  10.017  12.508
    9        1.631   0.859  10.017  12.508
tot         15.276  29.065  23.131  67.473