 vasp.6.4.2 20Jul23 (build Jun 26 2024 13:15:30) complex
 executed on              LinuxNV date 2025.04.15  17:58:33
 OpenACC runtime initialized ...    4 GPUs detected

 INCAR:
   ISTART = 1            (Read existing wavefunction, if there)
   ISPIN = 1            (Non-Spin polarised DFT)
   ICHARG = 11         (Non-self-consistent: GGA/LDA band structures)
   LREAL = .FALSE.       (Projection operators: automatic)
   LWAVE = .TRUE.        (Write WAVECAR or not)
   LCHARG = .TRUE.        (Write CHGCAR or not)
   ADDGRID = .TRUE.        (Increase grid, helps GGA convergence)
   LASPH = .TRUE.        (Give more accurate total energies and band structure calculations)
   PREC = Accurate      (Accurate strictly avoids any aliasing or wrap around errors)
   ISMEAR = 0            (gaussian smearing method)
   SIGMA = 0.05         (please check the width of the smearing)
   LORBIT = 11           (PAW radii for projected DOS)
   NEDOS = 2001         (DOSCAR points)
   NELM = 60           (Max electronic SCF steps)
   EDIFF = 1E-08        (SCF energy convergence, in eV)

 POTCAR:    PAW_PBE O 08Apr2002
 POTCAR:    PAW_PBE W_sv 04Sep2015
 POTCAR:    PAW_PBE Bi_d 06Sep2000
 POTCAR:    PAW_PBE O 08Apr2002
   VRHFIN =O: s2p4

   TITEL  = PAW_PBE O 08Apr2002
   POMASS =   16.000; ZVAL   =    6.000    mass and valenz
   ENMAX  =  400.000; ENMIN  =  300.000 eV

 POTCAR:    PAW_PBE W_sv 04Sep2015
   VRHFIN =W : 5p6s5d

   TITEL  = PAW_PBE W_sv 04Sep2015
   POMASS =  183.850; ZVAL   =   14.000    mass and valenz
   ENMAX  =  223.057; ENMIN  =  167.293 eV

 POTCAR:    PAW_PBE Bi_d 06Sep2000
   VRHFIN =Bi:

   TITEL  = PAW_PBE Bi_d 06Sep2000
   POMASS =  208.980; ZVAL   =   15.000    mass and valenz
   ENMAX  =  242.839; ENMIN  =  182.129 eV

  PAW_PBE O 08Apr2002                   :
  PAW_PBE W_sv 04Sep2015                :
  PAW_PBE Bi_d 06Sep2000                :

 POSCAR: Generated by VASPKIT code
  positions in direct lattice
  velocities in cartesian coordinates
 exchange correlation table for  LEXCH =        8
   RHO(1)=    0.500       N(1)  =     2000
   RHO(2)=  100.500       N(2)  =     4000

 ion  position               nearest neighbor table
   1  0.312  0.312  0.994-   7 1.80   7 2.17
   2  0.819  0.819  0.006-   7 1.83   7 2.02
   3  0.950  0.725  0.549-   7 1.90   8 2.45   8 2.66
   4  0.725  0.950  0.549-   7 1.90   9 2.45   9 2.66
   5  0.974  0.479  0.918-   8 2.18   9 2.27   9 2.38   8 2.49
   6  0.479  0.974  0.918-   9 2.18   8 2.27   8 2.38   9 2.49
   7  0.765  0.765  0.428-   1 1.80   2 1.83   3 1.90   4 1.90   2 2.02   1 2.17
   8  0.353  0.007  0.354-   5 2.18   6 2.27   6 2.38   3 2.45   5 2.49   3 2.66   9 3.75   9 3.75
                             9 3.76   9 3.76
   9  0.007  0.353  0.354-   6 2.18   5 2.27   5 2.38   4 2.45   6 2.49   4 2.66   8 3.75   8 3.75
                             8 3.76   8 3.76

  LATTYP: Found a base centered monoclinic cell.
 ALAT       =     5.4979998276
 B/A-ratio  =     3.0118616946
 C/A-ratio  =     0.6962573929
 COS(beta)  =    -0.6934704271

  Lattice vectors:

 A1 = (   2.7487708124,  -8.2796075390,  -0.0354900959)
 A2 = (   2.7487708124,   8.2796075390,  -0.0354900959)
 A3 = (  -2.6187928059,  -0.0000000000,   2.7920753089)

Analysis of symmetry for initial positions (statically):
 Subroutine PRICEL returns:
 Original cell was already a primitive cell.

 Routine SETGRP: Setting up the symmetry group for a
 base centered monoclinic supercell.

 Subroutine GETGRP returns: Found  2 space group operations
 (whereof  2 operations were pure point group operations)
 out of a pool of  4 trial point group operations.

The static configuration has the point symmetry C_1h.

Analysis of symmetry for dynamics (positions and initial velocities):
 Subroutine PRICEL returns:
 Original cell was already a primitive cell.

 Routine SETGRP: Setting up the symmetry group for a
 base centered monoclinic supercell.

 Subroutine GETGRP returns: Found  2 space group operations
 (whereof  2 operations were pure point group operations)
 out of a pool of  4 trial point group operations.

The dynamic configuration has the point symmetry C_1h.

 Subroutine INISYM returns: Found  2 space group operations
 (whereof  2 operations are pure point group operations),
 and found     1 'primitive' translations

                                     Primitive cell

  volume of cell :     125.5492

  direct lattice vectors                    reciprocal lattice vectors
     2.748770812 -8.279607539 -0.035490096     0.184129285 -0.060389336  0.172701805
     2.748770812  8.279607539 -0.035490096     0.184129285  0.060389336  0.172701805
    -2.618792806 -0.000000000  2.792075309     0.004680938  0.000000000  0.362546957

  length of vectors
     8.724041582  8.724041582  3.828023026     0.259569603  0.259569603  0.362577174

  position of ions in fractional coordinates (direct lattice)
     0.311601001  0.311601001  0.993614475
     0.818679278  0.818679278  0.006226457
     0.950229929  0.725012998  0.549057765
     0.725012998  0.950229929  0.549057765
     0.974437653  0.479071792  0.917801322
     0.479071792  0.974437653  0.917801322
     0.764774586  0.764774586  0.428491841
     0.353187034  0.007069086  0.353511413
     0.007069086  0.353187034  0.353511413

  ion indices of the primitive-cell ions
   primitive index   ion index
                 1           1
                 2           2
                 3           3
                 4           4
                 5           5
                 6           6
                 7           7
                 8           8
                 9           9

 KPOINTS: K-Path Generated by VASPKIT.

Interpolating k-points between supplied coordinates.

 Line segments in fractional coordinates (reciprocal lattice):
    0.000000  0.000000  0.000000  ...  0.000000  0.000000  0.500000
    0.000000  0.000000  0.500000  ...  0.262599  0.262599  0.500000
   -0.262599  0.737401  0.500000  ... -0.500000  0.500000  0.500000
   -0.500000  0.500000  0.500000  ...  0.000000  0.000000  0.000000
    0.000000  0.000000  0.000000  ...  0.500000  0.500000  0.000000
    0.000000  0.500000  0.500000  ...  0.000000  0.000000  0.000000
    0.000000  0.000000  0.000000  ...  0.000000  0.500000  0.000000

 Generated    20 points on each line segment, for a total of    140 k-points:

 Following reciprocal coordinates:
            Coordinates               Weight
  0.000000  0.000000  0.000000      0.007143
  0.000000  0.000000  0.026316      0.007143
  0.000000  0.000000  0.052632      0.007143
  0.000000  0.000000  0.078947      0.007143
  0.000000  0.000000  0.105263      0.007143
  0.000000  0.000000  0.131579      0.007143
  0.000000  0.000000  0.157895      0.007143
  0.000000  0.000000  0.184211      0.007143
  0.000000  0.000000  0.210526      0.007143
  0.000000  0.000000  0.236842      0.007143
  0.000000  0.000000  0.263158      0.007143
  0.000000  0.000000  0.289474      0.007143
  0.000000  0.000000  0.315789      0.007143
  0.000000  0.000000  0.342105      0.007143
  0.000000  0.000000  0.368421      0.007143
  0.000000  0.000000  0.394737      0.007143
  0.000000  0.000000  0.421053      0.007143
  0.000000  0.000000  0.447368      0.007143
  0.000000  0.000000  0.473684      0.007143
  0.000000  0.000000  0.500000      0.007143
  0.000000  0.000000  0.500000      0.007143
  0.013821  0.013821  0.500000      0.007143
  0.027642  0.027642  0.500000      0.007143
  0.041463  0.041463  0.500000      0.007143
  0.055284  0.055284  0.500000      0.007143
  0.069105  0.069105  0.500000      0.007143
  0.082926  0.082926  0.500000      0.007143
  0.096747  0.096747  0.500000      0.007143
  0.110568  0.110568  0.500000      0.007143
  0.124389  0.124389  0.500000      0.007143
  0.138210  0.138210  0.500000      0.007143
  0.152031  0.152031  0.500000      0.007143
  0.165852  0.165852  0.500000      0.007143
  0.179673  0.179673  0.500000      0.007143
  0.193494  0.193494  0.500000      0.007143
  0.207315  0.207315  0.500000      0.007143
  0.221136  0.221136  0.500000      0.007143
  0.234957  0.234957  0.500000      0.007143
  0.248778  0.248778  0.500000      0.007143
  0.262599  0.262599  0.500000      0.007143
 -0.262599  0.737401  0.500000      0.007143
 -0.275094  0.724906  0.500000      0.007143
 -0.287589  0.712411  0.500000      0.007143
 -0.300084  0.699916  0.500000      0.007143
 -0.312578  0.687422  0.500000      0.007143
 -0.325073  0.674927  0.500000      0.007143
 -0.337568  0.662432  0.500000      0.007143
 -0.350063  0.649937  0.500000      0.007143
 -0.362557  0.637443  0.500000      0.007143
 -0.375052  0.624948  0.500000      0.007143
 -0.387547  0.612453  0.500000      0.007143
 -0.400042  0.599958  0.500000      0.007143
 -0.412537  0.587463  0.500000      0.007143
 -0.425031  0.574969  0.500000      0.007143
 -0.437526  0.562474  0.500000      0.007143
 -0.450021  0.549979  0.500000      0.007143
 -0.462516  0.537484  0.500000      0.007143
 -0.475010  0.524990  0.500000      0.007143
 -0.487505  0.512495  0.500000      0.007143
 -0.500000  0.500000  0.500000      0.007143
[...]
  0.000000  0.131579  0.000000      0.007143
  0.000000  0.157895  0.000000      0.007143
  0.000000  0.184211  0.000000      0.007143
  0.000000  0.210526  0.000000      0.007143
  0.000000  0.236842  0.000000      0.007143
  0.000000  0.263158  0.000000      0.007143
  0.000000  0.289474  0.000000      0.007143
  0.000000  0.315789  0.000000      0.007143
  0.000000  0.342105  0.000000      0.007143
  0.000000  0.368421  0.000000      0.007143
  0.000000  0.394737  0.000000      0.007143
  0.000000  0.421053  0.000000      0.007143
  0.000000  0.447368  0.000000      0.007143
  0.000000  0.473684  0.000000      0.007143
  0.000000  0.500000  0.000000      0.007143

 Following cartesian coordinates:
            Coordinates               Weight
  0.000000  0.000000  0.000000      0.007143
  0.000123  0.000000  0.009541      0.007143
  0.000246  0.000000  0.019081      0.007143
  0.000370  0.000000  0.028622      0.007143
  0.000493  0.000000  0.038163      0.007143
  0.000616  0.000000  0.047704      0.007143
  0.000739  0.000000  0.057244      0.007143
  0.000862  0.000000  0.066785      0.007143
  0.000985  0.000000  0.076326      0.007143
  0.001109  0.000000  0.085866      0.007143
  0.001232  0.000000  0.095407      0.007143
  0.001355  0.000000  0.104948      0.007143
  0.001478  0.000000  0.114489      0.007143
  0.001601  0.000000  0.124029      0.007143
  0.001725  0.000000  0.133570      0.007143
  0.001848  0.000000  0.143111      0.007143
  0.001971  0.000000  0.152651      0.007143
  0.002094  0.000000  0.162192      0.007143
  0.002217  0.000000  0.171733      0.007143
  0.002340  0.000000  0.181273      0.007143
  0.002340  0.000000  0.181273      0.007143
  0.007430  0.000000  0.186047      0.007143
  0.012520  0.000000  0.190821      0.007143
  0.017610  0.000000  0.195595      0.007143
  0.022699  0.000000  0.200369      0.007143
  0.027789  0.000000  0.205143      0.007143
  0.032879  0.000000  0.209916      0.007143
  0.037968  0.000000  0.214690      0.007143
  0.043058  0.000000  0.219464      0.007143
[...]
   3.08224877 -0.00000000  1.14209764
   0.06448837 -2.86572077  0.97424496
   0.06448837  2.86572077  0.97424496

 k-point   1 :   0.0000 0.0000 0.0000  plane waves:    2275
 k-point   2 :   0.0000 0.0000 0.0263  plane waves:    2271
 k-point   3 :   0.0000 0.0000 0.0526  plane waves:    2280
 k-point   4 :   0.0000 0.0000 0.0789  plane waves:    2284
 k-point   5 :   0.0000 0.0000 0.1053  plane waves:    2283
 k-point   6 :   0.0000 0.0000 0.1316  plane waves:    2286
 k-point   7 :   0.0000 0.0000 0.1579  plane waves:    2286
 k-point   8 :   0.0000 0.0000 0.1842  plane waves:    2285
 k-point   9 :   0.0000 0.0000 0.2105  plane waves:    2279
 k-point  10 :   0.0000 0.0000 0.2368  plane waves:    2271
 k-point  11 :   0.0000 0.0000 0.2632  plane waves:    2276
 k-point  12 :   0.0000 0.0000 0.2895  plane waves:    2280
 k-point  13 :   0.0000 0.0000 0.3158  plane waves:    2268
 k-point  14 :   0.0000 0.0000 0.3421  plane waves:    2276
 k-point  15 :   0.0000 0.0000 0.3684  plane waves:    2269
 k-point  16 :   0.0000 0.0000 0.3947  plane waves:    2263
 k-point  17 :   0.0000 0.0000 0.4211  plane waves:    2262
 k-point  18 :   0.0000 0.0000 0.4474  plane waves:    2257
 k-point  19 :   0.0000 0.0000 0.4737  plane waves:    2255
 k-point  20 :   0.0000 0.0000 0.5000  plane waves:    2256
 k-point  21 :   0.0000 0.0000 0.5000  plane waves:    2256
 k-point  22 :   0.0138 0.0138 0.5000  plane waves:    2257
 k-point  23 :   0.0276 0.0276 0.5000  plane waves:    2259
 k-point  24 :   0.0415 0.0415 0.5000  plane waves:    2264
 k-point  25 :   0.0553 0.0553 0.5000  plane waves:    2272
 k-point  26 :   0.0691 0.0691 0.5000  plane waves:    2281
 k-point  27 :   0.0829 0.0829 0.5000  plane waves:    2283
 k-point  28 :   0.0967 0.0967 0.5000  plane waves:    2287
 k-point  29 :   0.1106 0.1106 0.5000  plane waves:    2289
 k-point  30 :   0.1244 0.1244 0.5000  plane waves:    2292
 k-point  31 :   0.1382 0.1382 0.5000  plane waves:    2290
 k-point  32 :   0.1520 0.1520 0.5000  plane waves:    2286
 k-point  33 :   0.1659 0.1659 0.5000  plane waves:    2290
 k-point  34 :   0.1797 0.1797 0.5000  plane waves:    2296
 k-point  35 :   0.1935 0.1935 0.5000  plane waves:    2292
 k-point  36 :   0.2073 0.2073 0.5000  plane waves:    2285
 k-point  37 :   0.2211 0.2211 0.5000  plane waves:    2290
 k-point  38 :   0.2350 0.2350 0.5000  plane waves:    2290
 k-point  39 :   0.2488 0.2488 0.5000  plane waves:    2282
 k-point  40 :   0.2626 0.2626 0.5000  plane waves:    2286
 k-point  41 :  -0.2626 0.7374 0.5000  plane waves:    2286
 k-point  42 :  -0.2751 0.7249 0.5000  plane waves:    2285
 k-point  43 :  -0.2876 0.7124 0.5000  plane waves:    2280
 k-point  44 :  -0.3001 0.6999 0.5000  plane waves:    2288
 k-point  45 :  -0.3126 0.6874 0.5000  plane waves:    2292
 k-point  46 :  -0.3251 0.6749 0.5000  plane waves:    2294
 k-point  47 :  -0.3376 0.6624 0.5000  plane waves:    2290
 k-point  48 :  -0.3501 0.6499 0.5000  plane waves:    2288
 k-point  49 :  -0.3626 0.6374 0.5000  plane waves:    2290
 k-point  50 :  -0.3751 0.6249 0.5000  plane waves:    2292
 k-point  51 :  -0.3875 0.6125 0.5000  plane waves:    2286
 k-point  52 :  -0.4000 0.6000 0.5000  plane waves:    2289
 k-point  53 :  -0.4125 0.5875 0.5000  plane waves:    2283
 k-point  54 :  -0.4250 0.5750 0.5000  plane waves:    2276
 k-point  55 :  -0.4375 0.5625 0.5000  plane waves:    2274
 k-point  56 :  -0.4500 0.5500 0.5000  plane waves:    2276
 k-point  57 :  -0.4625 0.5375 0.5000  plane waves:    2266
 k-point  58 :  -0.4750 0.5250 0.5000  plane waves:    2265
 k-point  59 :  -0.4875 0.5125 0.5000  plane waves:    2264
 k-point  60 :  -0.5000 0.5000 0.5000  plane waves:    2264
[...]
 k-point 126 :   0.0000 0.1316 0.0000  plane waves:    2270
 k-point 127 :   0.0000 0.1579 0.0000  plane waves:    2272
 k-point 128 :   0.0000 0.1842 0.0000  plane waves:    2276
 k-point 129 :   0.0000 0.2105 0.0000  plane waves:    2282
 k-point 130 :   0.0000 0.2368 0.0000  plane waves:    2290
 k-point 131 :   0.0000 0.2632 0.0000  plane waves:    2292
 k-point 132 :   0.0000 0.2895 0.0000  plane waves:    2288
 k-point 133 :   0.0000 0.3158 0.0000  plane waves:    2285
 k-point 134 :   0.0000 0.3421 0.0000  plane waves:    2284
 k-point 135 :   0.0000 0.3684 0.0000  plane waves:    2288
 k-point 136 :   0.0000 0.3947 0.0000  plane waves:    2288
 k-point 137 :   0.0000 0.4211 0.0000  plane waves:    2295
 k-point 138 :   0.0000 0.4474 0.0000  plane waves:    2290
 k-point 139 :   0.0000 0.4737 0.0000  plane waves:    2288
 k-point 140 :   0.0000 0.5000 0.0000  plane waves:    2288

 maximum and minimum number of plane-waves per node :      2301     2255

 maximum number of plane-waves:      2301
 maximum index in each direction:
   IXMAX=   14   IYMAX=   14   IZMAX=    6
   IXMIN=  -14   IYMIN=  -14   IZMIN=   -6

 serial   3D FFT for wavefunctions
 parallel 3D FFT for charge:
    minimum data exchange during FFTs selected (reduces bandwidth)

 initial charge density was supplied:
 number of electron      80.0000001 magnetization
 keeping initial charge density in first step

 Maximum index for augmentation-charges         88908 (set IRDMAX)

 First call to EWALD:  gamma=   0.354
 Maximum number of real-space cells 3x 3x 5
 Maximum number of reciprocal cells 4x 4x 2

--------------------------------------- Ionic step        1  -------------------------------------------

--------------------------------------- Iteration      1(   1)  ---------------------------------------

 eigenvalue-minimisations  : 14040
 total energy-change (2. order) : 0.9557699E+03  (-0.3686542E+04)
 number of electron      80.0000001 magnetization
 augmentation part       80.0000001 magnetization

 Free energy of the ion-electron system (eV)
  alpha Z        PSCENC =       343.16578823
  Ewald energy   TEWEN  =     -6351.82575815
  -Hartree energ DENC   =     -2078.07321992
  -exchange      EXHF   =         0.00000000
  -V(xc)+E(xc)   XCENC  =       325.90264705
  PAW double counting   =      9678.52900604    -9609.46764194
  entropy T*S    EENTRO =        -0.00287025
  eigenvalues    EBANDS =       269.99550538
  atomic energy  EATOM  =      8377.54643440
  Solvation  Ediel_sol  =         0.00000000
  free energy    TOTEN  =       955.76989083 eV

  energy without entropy =      955.77276108  energy(sigma->0) =      955.77132595

[...]

 eigenvalue-minimisations  : 14480
 total energy-change (2. order) :-0.8879833E+03  (-0.8588991E+03)
 number of electron      80.0000001 magnetization
 augmentation part       80.0000001 magnetization

[...]

--------------------------------------- Iteration      1(  10)  ---------------------------------------

 eigenvalue-minimisations  : 10696
 total energy-change (2. order) :-0.1869921E-08  (-0.2078337E-08)
 number of electron      80.0000001 magnetization
 augmentation part       80.0000001 magnetization

 Free energy of the ion-electron system (eV)
  alpha Z        PSCENC =       343.16578823
  Ewald energy   TEWEN  =     -6351.82575815
  -Hartree energ DENC   =     -2078.07321992
  -exchange      EXHF   =         0.00000000
  -V(xc)+E(xc)   XCENC  =       325.90264705
  PAW double counting   =      9678.52900604    -9609.46764194
  entropy T*S    EENTRO =        -0.00000000
  eigenvalues    EBANDS =      -751.30663574
  atomic energy  EATOM  =      8377.54643440
  Solvation  Ediel_sol  =         0.00000000
  free energy    TOTEN  =       -65.52938004 eV

  energy without entropy =      -65.52938004  energy(sigma->0) =      -65.52938004

 average (electrostatic) potential at core
  the test charge radii are     0.7215  1.1823  1.0856
  (the norm of the test charge is              1.0000)
       1 -69.6226       2 -69.6877       3 -68.7571       4 -68.7571       5 -69.0081
       6 -69.0081       7 -67.6189       8-104.8636       9-104.8636

 E-fermi :   5.2759     XC(G=0): -10.8188     alpha+bet :-12.1028

 Fermi energy:         5.2759011699

 k-point     1 :       0.0000    0.0000    0.0000
  band No.  band energies     occupation
      1     -69.5907      2.00000
      2     -33.9213      2.00000
      3     -33.8704      2.00000
      4     -33.7124      2.00000
      5     -16.9420      2.00000
      6     -16.7573      2.00000
      7     -16.7316      2.00000
      8     -16.7252      2.00000
      9     -16.7169      2.00000
     10     -16.7163      2.00000
     11     -16.6863      2.00000
     12     -16.6779      2.00000
     13     -16.6309      2.00000
     14     -16.6247      2.00000
     15     -13.5456      2.00000
     16     -13.2462      2.00000
     17     -12.6494      2.00000
     18     -11.6944      2.00000
     19     -11.2334      2.00000
     20     -10.7568      2.00000
     21      -4.4016      2.00000
     22      -2.1693      2.00000
     23       0.6580      2.00000
     24       0.7193      2.00000
     25       1.2898      2.00000
     26       1.5349      2.00000
     27       1.7509      2.00000
     28       1.8343      2.00000
     29       2.0986      2.00000
     30       2.3517      2.00000
     31       2.5766      2.00000
     32       3.0461      2.00000
     33       3.1137      2.00000
     34       3.1206      2.00000
     35       3.4550      2.00000
     36       3.7476      2.00000
     37       3.7553      2.00000
     38       3.9297      2.00000
     39       4.1067      2.00000
     40       4.6718      2.00000
     41       7.0528      0.00000
     42       7.8435      0.00000
     43       8.0027      0.00000
     44       8.4995      0.00000
     45       8.9493      0.00000
     46      10.0817      0.00000
     47      10.6506      0.00000
     48      10.7924      0.00000

[...]

 k-point   140 :       0.0000    0.5000    0.0000
  band No.  band energies     occupation
      1     -69.5904      2.00000
      2     -33.9559      2.00000
      3     -33.8812      2.00000
      4     -33.7101      2.00000
      5     -16.8789      2.00000
      6     -16.8775      2.00000
      7     -16.7297      2.00000
      8     -16.7294      2.00000
      9     -16.7153      2.00000
     10     -16.7152      2.00000
     11     -16.6652      2.00000
     12     -16.6651      2.00000
     13     -16.6317      2.00000
     14     -16.6317      2.00000
     15     -13.2008      2.00000
     16     -12.2086      2.00000
     17     -12.0626      2.00000
     18     -11.7917      2.00000
     19     -11.5645      2.00000
     20     -10.9779      2.00000
     21      -3.9524      2.00000
     22      -3.8753      2.00000
     23      -1.5576      2.00000
     24       0.0906      2.00000
     25       0.7365      2.00000
     26       0.7881      2.00000
     27       1.5808      2.00000
     28       1.7887      2.00000
     29       2.1045      2.00000
     30       2.1818      2.00000
     31       2.4078      2.00000
     32       2.4623      2.00000
     33       2.6308      2.00000
     34       2.6675      2.00000
     35       3.1325      2.00000
     36       3.4602      2.00000
     37       3.8682      2.00000
     38       4.4021      2.00000
     39       4.7167      2.00000
     40       4.9587      2.00000
     41       7.9631      0.00000
     42       8.9984      0.00000
     43       9.2508      0.00000
     44       9.4816      0.00000
     45       9.7836      0.00000
     46      10.4719      0.00000
     47      10.6219      0.00000
     48      11.1872      0.00000

 soft charge-density along one line, spin component            1
         0         1         2         3         4         5         6         7         8         9
 total charge-density along one line

------------------------ aborting loop because EDIFF is reached ----------------------------------------

 total charge

# of ion       s       p       d       tot
    1        1.599   3.518   0.000   5.117
    2        1.592   3.551   0.000   5.142
    3        1.603   3.428   0.000   5.031
    4        1.603   3.428   0.000   5.031
    5        1.601   3.460   0.000   5.061
    6        1.601   3.460   0.000   5.061
    7        2.400   6.548   3.085  12.033
    8        1.631   0.852  10.019  12.501
    9        1.631   0.852  10.019  12.501
tot         15.260  29.096  23.122  67.478

  FORCE on cell =-STRESS in cart. coord.  units (eV):
  Direction    XX          YY          ZZ          XY          YZ          ZX
  Alpha Z   343.16579   343.16579   343.16579
  Ewald   -2075.75447 -2246.56034 -2029.52012     0.00000    -0.00000  -132.34224
  Hartree   720.36426   610.19427   748.57957     0.00000     0.00000   -85.02945
  E(xc)    -392.86257  -393.05314  -392.74346     0.00000    -0.00000    -0.12058
  Local    -266.38786     7.59427  -340.23016    -0.00000    -0.00000   214.36912
  n-local    57.95777    58.96394    57.91640     0.02161    -0.00976    -0.02157
  augment   370.36313   370.08222   371.20048    -0.00000    -0.00000    -0.26521
  Kinetic  1242.19379  1249.04795  1240.53130    -0.08044     0.08914     3.19916
  Fock        0.00000     0.00000     0.00000     0.00000     0.00000     0.00000
  Total      -0.96016    -0.56505    -1.10020     0.00000     0.00000    -0.21077
  in kB     -12.25297    -7.21079   -14.04006     0.00000     0.00000    -2.68974

 VOLUME and BASIS-vectors are now :
  energy-cutoff  :      400.00
  volume of cell :      125.55
      direct lattice vectors                 reciprocal lattice vectors
     2.748770812 -8.279607539 -0.035490096     0.184129285 -0.060389336  0.172701805
     2.748770812  8.279607539 -0.035490096     0.184129285  0.060389336  0.172701805
    -2.618792806 -0.000000000  2.792075309     0.004680938  0.000000000  0.362546957

  length of vectors
     8.724041582  8.724041582  3.828023026     0.259569603  0.259569603  0.362577174

 FORCES acting on ions
    electron-ion (+dipol)            ewald-force                    non-local-force                 convergence-correction
   0.678E+02 0.242E-12 0.525E+02   -.801E+02 0.000E+00 -.610E+02   0.122E+02 0.000E+00 0.925E+01   0.162E+00 0.365E-10 -.361E+00
   -.464E+02 0.192E-11 0.247E+02   0.571E+02 0.000E+00 -.252E+02   -.900E+01 0.000E+00 0.247E+01   -.107E+01 0.384E-10 -.114E+01
   0.247E+02 0.142E+03 0.258E+02   -.261E+02 -.161E+03 -.275E+02   0.132E+01 0.177E+02 0.129E+01   0.124E+00 0.104E+01 0.308E+00
   0.247E+02 -.142E+03 0.258E+02   -.261E+02 0.161E+03 -.275E+02   0.132E+01 -.177E+02 0.129E+01   0.124E+00 -.104E+01 0.308E+00
   0.105E+02 -.773E+01 0.196E+02   -.135E+02 0.774E+01 -.251E+02   0.295E+01 0.186E+00 0.550E+01   0.434E-01 -.135E+00 0.308E-01
   0.105E+02 0.773E+01 0.196E+02   -.135E+02 -.774E+01 -.251E+02   0.295E+01 -.186E+00 0.550E+01   0.434E-01 0.135E+00 0.308E-01
   0.185E+02 -.700E-11 0.449E+01   -.196E+02 -.171E-12 -.657E+01   -.130E+00 0.000E+00 -.132E+00   0.545E+00 0.642E-10 0.103E+01
   -.577E+02 -.220E+03 -.926E+02   0.609E+02 0.231E+03 0.990E+02   -.307E+01 -.130E+02 -.625E+01   -.132E+00 0.254E+01 -.173E+00
   -.577E+02 0.220E+03 -.926E+02   0.609E+02 -.231E+03 0.990E+02   -.307E+01 0.130E+02 -.625E+01   -.132E+00 -.254E+01 -.173E+00
   -.515E+01 -.126E-10 -.125E+02   0.142E-13 0.568E-13 0.000E+00   0.549E+01 -.178E-14 0.127E+02   -.297E+00 -.612E-11 -.142E+00

 POSITION                                       TOTAL-FORCE (eV/Angst)
     -0.88903     -0.00000      2.75213         0.092113      0.000000      0.363393
      4.48442      0.00000     -0.04073         0.616817      0.000000      0.839577
      3.16699     -1.86471      1.47356        -0.043590     -0.227757     -0.073493
      3.16699      1.86471      1.47356        -0.043590      0.227757     -0.073493
      1.59183     -4.10143      2.51099         0.025702      0.062586      0.064800
      1.59183      4.10143      2.51099         0.025702     -0.062586      0.064800
      3.08225     -0.00000      1.14210        -0.738949      0.000000     -1.181749
      0.06449     -2.86572      0.97424         0.032898      0.013038     -0.001917
      0.06449      2.86572      0.97424         0.032898     -0.013038     -0.001917
    total drift:                                0.042964     -0.000000      0.064786

  FREE ENERGIE OF THE ION-ELECTRON SYSTEM (eV)
  free  energy   TOTEN  =       -65.52938004 eV

  energy  without entropy=      -65.52938004  energy(sigma->0) =      -65.52938004

 writing wavefunctions

 total charge

# of ion       s       p       d       tot
    1        1.599   3.518   0.000   5.117
    2        1.592   3.551   0.000   5.142
    3        1.603   3.428   0.000   5.031
    4        1.603   3.428   0.000   5.031
    5        1.601   3.460   0.000   5.061
    6        1.601   3.460   0.000   5.061
    7        2.400   6.548   3.085  12.033
    8        1.631   0.852  10.019  12.501
    9        1.631   0.852  10.019  12.501
tot         15.260  29.096  23.122  67.478